c p0=0.08
p cnf 10 43
-2 10 -3 0
9 -10 -3 0
-8 -1 7 0
3 7 1 0
2 1 -6 0
-9 6 2 0
-6 7 -8 0
-6 -9 -10 0
8 4 3 0
2 8 -10 0
2 -8 -5 0
10 6 9 0
-6 4 7 0
-9 -3 2 0
-7 -10 4 0
-9 -5 -6 0
-1 9 6 0
7 8 6 0
6 -10 1 0
1 -7 9 0
-9 -7 -8 0
-1 -8 6 0
4 9 8 0
-6 -4 -1 0
-8 -4 -2 0
-1 6 3 0
-4 3 6 0
2 8 10 0
7 6 -8 0
6 3 -8 0
-6 -5 -4 0
-2 -9 1 0
3 -6 -10 0
-6 -8 -1 0
-1 8 2 0
10 4 -2 0
2 -9 -4 0
-7 -8 -5 0
-8 -3 -7 0
8 2 -10 0
4 10 -7 0
10 3 -1 0
-4 6 9 0
